\* LPOptimizationProblem *\
Minimize
OBJ: 100 Fh_0 + 100 Fh_1 + 100 Fh_2 + 100 Fh_3 + 10 I0_0 + 10 I0_1 + 10 I0_2
 + 10 I0_3
Subject To
Const0: Fh_0 + x_0_0 + x_1_0 + x_2_0 + x_3_0 + x_4_0 >= 0
Const1: Fh_1 + x_0_1 + x_1_1 + x_2_1 + x_3_1 + x_4_1 >= 3
Const2: Fh_2 + x_0_2 + x_1_2 + x_2_2 + x_3_2 + x_4_2 >= 5
Const3: Fh_3 + x_0_3 + x_1_3 + x_2_3 + x_3_3 + x_4_3 >= 10
_C1: - 1000000 YI0h_0 - x_0_0 <= -3
_C10: I0_1 >= 0
_C11: I0_2 >= 0
_C12: I0_3 >= 0
_C13: I0_0 - x_0_0 >= -3
_C14: I0_1 - x_0_1 >= -9
_C15: I0_2 - x_0_2 >= -14
_C16: I0_3 - x_0_3 >= -17
_C17: I0_0 + 1000000 YI0h_0 <= 1000000
_C18: I0_1 + 1000000 YI0h_1 <= 1000000
_C19: I0_2 + 1000000 YI0h_2 <= 1000000
_C2: - 1000000 YI0h_1 - x_0_1 <= -9
_C20: I0_3 + 1000000 YI0h_3 <= 1000000
_C21: I0_0 - 1000000 YI0h_0 - x_0_0 <= -3
_C22: I0_1 - 1000000 YI0h_1 - x_0_1 <= -9
_C23: I0_2 - 1000000 YI0h_2 - x_0_2 <= -14
_C24: I0_3 - 1000000 YI0h_3 - x_0_3 <= -17
_C25: - 1000000 YFh_0 + x_0_0 + x_1_0 + x_2_0 + x_3_0 + x_4_0 <= 0
_C26: - 1000000 YFh_1 + x_0_1 + x_1_1 + x_2_1 + x_3_1 + x_4_1 <= 3
_C27: - 1000000 YFh_2 + x_0_2 + x_1_2 + x_2_2 + x_3_2 + x_4_2 <= 5
_C28: - 1000000 YFh_3 + x_0_3 + x_1_3 + x_2_3 + x_3_3 + x_4_3 <= 10
_C29: 1000000 YFh_0 - x_0_0 - x_1_0 - x_2_0 - x_3_0 - x_4_0 <= 1000000
_C3: - 1000000 YI0h_2 - x_0_2 <= -14
_C30: 1000000 YFh_1 - x_0_1 - x_1_1 - x_2_1 - x_3_1 - x_4_1 <= 999997
_C31: 1000000 YFh_2 - x_0_2 - x_1_2 - x_2_2 - x_3_2 - x_4_2 <= 999995
_C32: 1000000 YFh_3 - x_0_3 - x_1_3 - x_2_3 - x_3_3 - x_4_3 <= 999990
_C33: Fh_0 >= 0
_C34: Fh_1 >= 0
_C35: Fh_2 >= 0
_C36: Fh_3 >= 0
_C37: Fh_0 + 1000000 YFh_0 <= 1000000
_C38: Fh_1 + 1000000 YFh_1 <= 1000000
_C39: Fh_2 + 1000000 YFh_2 <= 1000000
_C4: - 1000000 YI0h_3 - x_0_3 <= -17
_C40: Fh_3 + 1000000 YFh_3 <= 1000000
_C41: Fh_0 - 1000000 YFh_0 + x_0_0 + x_1_0 + x_2_0 + x_3_0 + x_4_0 <= 0
_C42: Fh_1 - 1000000 YFh_1 + x_0_1 + x_1_1 + x_2_1 + x_3_1 + x_4_1 <= 3
_C43: Fh_2 - 1000000 YFh_2 + x_0_2 + x_1_2 + x_2_2 + x_3_2 + x_4_2 <= 5
_C44: Fh_3 - 1000000 YFh_3 + x_0_3 + x_1_3 + x_2_3 + x_3_3 + x_4_3 <= 10
_C45: 0.75 Fh_0 - 0.25 Fh_1 - 0.25 Fh_2 - 0.25 Fh_3 <= 0
_C46: - 0.25 Fh_0 + 0.75 Fh_1 - 0.25 Fh_2 - 0.25 Fh_3 <= 0
_C47: - 0.25 Fh_0 - 0.25 Fh_1 + 0.75 Fh_2 - 0.25 Fh_3 <= 0
_C48: - 0.25 Fh_0 - 0.25 Fh_1 - 0.25 Fh_2 + 0.75 Fh_3 <= 0
_C49: x_0_0 + x_0_1 + x_0_2 + x_0_3 = 6
_C5: 1000000 YI0h_0 + x_0_0 <= 1000003
_C50: x_1_0 + x_1_1 + x_1_2 + x_1_3 = 7
_C51: x_2_0 + x_2_1 + x_2_2 + x_2_3 = 8
_C52: x_3_0 + x_3_1 + x_3_2 + x_3_3 = 9
_C53: x_4_0 + x_4_1 + x_4_2 + x_4_3 = 10
_C54: 0.2 x_0_0 - 0.1 x_0_1 + 0.2 x_1_0 - 0.1 x_1_1 + 0.2 x_2_0 - 0.1 x_2_1
 + 0.2 x_3_0 - 0.1 x_3_1 + 0.2 x_4_0 - 0.1 x_4_1 = -0.3
_C55: 0.1 x_0_1 - 0.0666666666667 x_0_2 + 0.1 x_1_1 - 0.0666666666667 x_1_2
 + 0.1 x_2_1 - 0.0666666666667 x_2_2 + 0.1 x_3_1 - 0.0666666666667 x_3_2
 + 0.1 x_4_1 - 0.0666666666667 x_4_2 = -0.0333333333333
_C56: 0.0666666666667 x_0_2 - 0.05 x_0_3 + 0.0666666666667 x_1_2 - 0.05 x_1_3
 + 0.0666666666667 x_2_2 - 0.05 x_2_3 + 0.0666666666667 x_3_2 - 0.05 x_3_3
 + 0.0666666666667 x_4_2 - 0.05 x_4_3 <= -0.166666666667
_C6: 1000000 YI0h_1 + x_0_1 <= 1000009
_C7: 1000000 YI0h_2 + x_0_2 <= 1000014
_C8: 1000000 YI0h_3 + x_0_3 <= 1000017
_C9: I0_0 >= 0
Bounds
0 <= Fh_0
0 <= Fh_1
0 <= Fh_2
0 <= Fh_3
0 <= I0_0
0 <= I0_1
0 <= I0_2
0 <= I0_3
0 <= x_0_0
0 <= x_0_1
0 <= x_0_2
0 <= x_0_3
0 <= x_1_0
0 <= x_1_1
0 <= x_1_2
0 <= x_1_3
0 <= x_2_0
0 <= x_2_1
0 <= x_2_2
0 <= x_2_3
0 <= x_3_0
0 <= x_3_1
0 <= x_3_2
0 <= x_3_3
0 <= x_4_0
0 <= x_4_1
0 <= x_4_2
0 <= x_4_3
Generals
Fh_0
Fh_1
Fh_2
Fh_3
I0_0
I0_1
I0_2
I0_3
x_0_0
x_0_1
x_0_2
x_0_3
x_1_0
x_1_1
x_1_2
x_1_3
x_2_0
x_2_1
x_2_2
x_2_3
x_3_0
x_3_1
x_3_2
x_3_3
x_4_0
x_4_1
x_4_2
x_4_3
Binaries
YFh_0
YFh_1
YFh_2
YFh_3
YI0h_0
YI0h_1
YI0h_2
YI0h_3
End
